Version identifier: 22.1.1.0 | 2022-11-28 | 9160aff4d
CPXPARAM_ClockType                               1
CPXPARAM_Read_DataCheck                          1
CPXPARAM_Threads                                 1
CPXPARAM_TimeLimit                               7200
CPXPARAM_MIP_Tolerances_AbsMIPGap                0
CPXPARAM_MIP_Tolerances_MIPGap                   0
CPXPARAM_MIP_Tolerances_Integrality              0
Tried aggregator 2 times.
MIP Presolve eliminated 2283 rows and 4 columns.
MIP Presolve modified 4557 coefficients.
Aggregator did 2277 substitutions.
Reduced MIP has 116444 rows, 11381 columns, and 620764 nonzeros.
Reduced MIP has 11381 binaries, 0 generals, 0 SOSs, and 0 indicators.
Presolve time = 1.73 sec. (1131.81 ticks)
Probing time = 0.02 sec. (11.72 ticks)
Tried aggregator 1 time.
Detecting symmetries...
Reduced MIP has 116444 rows, 11381 columns, and 620764 nonzeros.
Reduced MIP has 11381 binaries, 0 generals, 0 SOSs, and 0 indicators.
Presolve time = 1.41 sec. (956.35 ticks)
Probing time = 0.02 sec. (11.72 ticks)
Clique table members: 91964.
MIP emphasis: balance optimality and feasibility.
MIP search method: dynamic search.
Parallel mode: none, using 1 thread.
Root relaxation solution time = 13.12 sec. (6508.47 ticks)

        Nodes                                         Cuts/
   Node  Left     Objective  IInf  Best Integer    Best Bound    ItCnt     Gap

      0     0     5313.0000  6069                   5313.0000    27807         
      0     0     4554.0000  5118               ZeroHalf: 1774   123357         
      0     0     4554.0000  4949                  Cuts: 2387   156126         
      0     0     4554.0000  5013                  Cuts: 2366   337453         
Heuristic still looking.
Heuristic still looking.
Detecting symmetries...
      0     2     4554.0000  4068                   4554.0000   337453         
Elapsed time = 6229.89 sec. (1605770.15 ticks, tree = 0.01 MB, solutions = 0)
      1     3     4554.0000  4091                   4554.0000   337465         

GUB cover cuts applied:  1
Clique cuts applied:  5
Zero-half cuts applied:  1590
Gomory fractional cuts applied:  2

Root node processing (before b&c):
  Real time             = 6229.61 sec. (1605511.09 ticks)
Sequential b&c:
  Real time             =  970.52 sec. (194470.13 ticks)
                          ------------
Total (root+branch&cut) = 7200.13 sec. (1799981.22 ticks)
Solution is infeasible.

---------------------
@@@ MIP_time_limit_infeasible
Traceback (most recent call last):
  File "/scratch/scherif/DiverseSAT-journal_sup/DiverseSAT_Supplementary_Experiments/experiment-1/cplex/jobs/../solvers/CPLEX-BIN-SE.py", line 134, in <module>
    print(f">>> Benchmark {os.path.basename(cnf_file)} k {k} OPT {int(prob.solution.get_objective_value())}"
  File "/users/scherif/.local/lib/python3.9/site-packages/cplex/_internal/_subinterfaces.py", line 7211, in get_objective_value
    return CPX_PROC.getobjval(self._env._e, self._cplex._lp)
  File "/users/scherif/.local/lib/python3.9/site-packages/cplex/_internal/_procedural.py", line 2055, in getobjval
    check_status(env, status)
  File "/users/scherif/.local/lib/python3.9/site-packages/cplex/_internal/_procedural.py", line 249, in __call__
    raise CplexSolverError(error_string, env, status)
cplex.exceptions.errors.CplexSolverError: CPLEX Error  1217: No solution exists.
